peakDumbCharging = 14800; 
Machine = anon_enum(16); 
machineSpeed = [3700,3700,3700,3700,3700,3700,3700,3700,3700,3700,3700,3700,3700,3700,3700,3700]; 
machineLoad = [3700,3700,3700,3700,3700,3700,3700,3700,3700,3700,3700,3700,3700,3700,3700,3700]; 
Car = anon_enum(12); 
demandCar = [13000,13920,10320,7480,8840,14320,10200,14440,5280,3440,7200,11040]; 
arrivalCar = [72,71,66,63,61,61,61,53,47,46,42,41]; 
departureCar = [77,76,72,67,67,66,66,58,51,54,45,45]; 
